sat
(:added-eqs                       2564
 :arith-eq-adapter                157
 :arith-bound-propagations-lp     61
 :arith-branch                    2
 :arith-conflicts                 348
 :arith-cube-calls                1
 :arith-diseq                     82
 :arith-fixed-eqs                 94
 :arith-gcd-calls                 32
 :arith-grobner-calls             26
 :arith-grobner-conflicts         24
 :arith-hnf-calls                 1
 :arith-horner-calls              2
 :arith-horner-conflicts          1
 :arith-horner-cross-nested-forms 2568
 :arith-lower                     527
 :arith-make-feasible             549
 :arith-max-columns               1527
 :arith-max-rows                  638
 :arith-nla-add-bounds            9
 :arith-nla-lemmas                171
 :arith-nla-propagate-bounds      145
 :arith-nla-propagate-eq          3535
 :arith-nra-calls                 6
 :arith-offset-eqs                277
 :arith-patches                   32
 :arith-patches-success           30
 :arith-upper                     724
 :binary-propagations             467
 :conflicts                       51
 :decisions                       782
 :del-clause                      260
 :final-checks                    65
 :max-memory                      65.32
 :memory                          18.92
 :minimized-lits                  5
 :mk-bool-var                     1517
 :mk-clause                       467
 :mk-clause-binary                5554
 :nlsat-conflicts                 432
 :nlsat-propagations              26358
 :nlsat-stages                    22686
 :num-allocs                      214901501
 :num-checks                      1
 :propagations                    858
 :rlimit-count                    794300
 :sls-arith-steps                 18248
 :sls-ddfw-flips                  312.00
 :sls-ddfw-shifts                 1.00
 :sls-num-guided-search           34
 :sls-repair-down                 805
 :sls-repair-up                   1659
 :solve-eqs-elim-vars             130
 :solve-eqs-steps                 2209
 :time                            8.16
 :total-time                      8.15)
